s td 14 47 60
b 1 1 2 3 5 6 7 8 9 10 11 12 13 14 15 16 17 19 20 22 24 26 28 31 32 33 34 37 39 40 42 43 44 45 46 47 48 49 50 51 52 53 54 55 56 57 59 60
b 2 1 3 5 6 7 8 9 10 11 12 13 14 16 17 19 20 22 24 26 28 31 32 33 34 35 37 39 40 42 43 44 45 46 47 48 49 50 51 52 53 54 55 56 57 59 60
b 3 1 3 5 6 7 8 9 10 11 12 13 14 16 17 19 20 22 24 26 28 31 33 34 35 37 39 40 42 43 44 45 46 47 48 49 50 52 53 54 55 56 57 58 59 60
b 4 3 5 6 7 8 9 10 11 12 13 14 17 19 20 22 24 26 28 31 33 34 35 37 38 39 40 42 43 44 45 46 47 48 49 50 52 53 54 55 56 57 58 59 60
b 5 3 4 5 6 7 8 9 10 11 12 13 14 17 19 22 31 33 34 35 37 38 42 44 45 46 47 48 49 50 53 54 56 57 58 59 60
b 6 3 4 5 8 10 11 12 13 14 17 22 23 31 34 37 44 46 48 49 53 54 56 57 58 59
b 7 5 12 20 24 25 28 31 35 37 38 39 43 46 49 52 53 55 56 57 58 60
b 8 2 3 5 6 9 10 11 14 15 17 18 19 20 24 26 28 32 34 37 40 42 43 45 48 49 50 52 54 57
b 9 1 2 5 6 7 8 9 10 11 12 13 14 15 16 17 19 20 22 26 28 31 32 33 34 37 39 40 41 42 43 44 45 46 47 48 49 50 51 52 53 54 55 56 57 59 60
b 10 1 2 5 6 7 8 9 10 11 12 13 14 15 16 17 19 20 22 26 28 30 31 32 33 34 39 40 41 42 43 44 45 46 47 48 49 50 51 52 53 54 56 57 59 60
b 11 1 2 5 6 7 8 9 10 11 12 13 14 15 16 19 20 22 26 28 30 31 32 34 36 39 40 41 42 43 44 45 46 47 48 49 50 51 52 53 54 56 57 59 60
b 12 1 2 5 6 7 8 9 10 11 12 13 14 15 16 19 20 22 26 28 29 30 31 32 34 36 39 40 41 42 43 44 45 47 48 49 50 52 53 54 56 57 60
b 13 1 2 5 6 7 8 9 10 11 12 13 14 15 16 19 20 22 26 27 29 31 32 34 39 40 42 43 44 47 50 52 53 54 56 57 60
b 14 1 2 5 6 7 8 9 11 12 13 14 15 19 20 21 22 27 29 31 32 34 42 43 44 47 50 54 56 57 60
1 2
1 8
1 9
2 3
3 4
4 5
4 7
5 6
9 10
10 11
11 12
12 13
13 14
